array [1..2] of int: X_INTRODUCED_1_ = [1,-1];
var {411,432,511,521,522,532,533}: Vr21:: output_var;
var {411,432,511,521,522,532,533}: Vr22:: output_var;
var {411,432,511,521,522,532,533}: Vr23:: output_var;
var {511,521,522,532}: Vp1:: output_var;
var {511,521,522,532,533}: Vp2:: output_var;
var {411,432,521,522}: Vp3:: output_var;
var {411,432,521,522}: Vp4:: output_var;
var 4..5: X_INTRODUCED_3_ ::var_is_introduced :: is_defined_var;
var 4..5: X_INTRODUCED_4_ ::var_is_introduced :: is_defined_var;
var bool: X_INTRODUCED_5_ ::var_is_introduced :: is_defined_var;
var {41,43,51,52,53}: X_INTRODUCED_6_ ::var_is_introduced :: is_defined_var;
var 1..3: X_INTRODUCED_7_ ::var_is_introduced ;
var {41,43,51,52,53}: X_INTRODUCED_8_ ::var_is_introduced :: is_defined_var;
var 1..3: X_INTRODUCED_9_ ::var_is_introduced ;
var bool: X_INTRODUCED_10_ ::var_is_introduced :: is_defined_var;
var 1..3: X_INTRODUCED_11_ ::var_is_introduced ;
var 1..3: X_INTRODUCED_12_ ::var_is_introduced ;
var bool: X_INTRODUCED_14_ ::var_is_introduced :: is_defined_var;
var 4..5: X_INTRODUCED_15_ ::var_is_introduced :: is_defined_var;
var bool: X_INTRODUCED_17_ ::var_is_introduced :: is_defined_var;
var {41,43,51,52,53}: X_INTRODUCED_18_ ::var_is_introduced :: is_defined_var;
var 1..3: X_INTRODUCED_19_ ::var_is_introduced ;
var bool: X_INTRODUCED_20_ ::var_is_introduced :: is_defined_var;
var 1..3: X_INTRODUCED_21_ ::var_is_introduced ;
var bool: X_INTRODUCED_22_ ::var_is_introduced :: is_defined_var;
var bool: X_INTRODUCED_25_ ::var_is_introduced :: is_defined_var;
var bool: X_INTRODUCED_26_ ::var_is_introduced :: is_defined_var;
var bool: X_INTRODUCED_27_ ::var_is_introduced :: is_defined_var;
var bool: X_INTRODUCED_29_ ::var_is_introduced :: is_defined_var;
var bool: X_INTRODUCED_30_ ::var_is_introduced :: is_defined_var;
var bool: X_INTRODUCED_31_ ::var_is_introduced :: is_defined_var;
var bool: X_INTRODUCED_32_ ::var_is_introduced :: is_defined_var;
var bool: X_INTRODUCED_33_ ::var_is_introduced :: is_defined_var;
var bool: X_INTRODUCED_34_ ::var_is_introduced :: is_defined_var;
var bool: X_INTRODUCED_35_ ::var_is_introduced :: is_defined_var;
var bool: X_INTRODUCED_37_ ::var_is_introduced :: is_defined_var;
var bool: X_INTRODUCED_38_ ::var_is_introduced :: is_defined_var;
var bool: X_INTRODUCED_40_ ::var_is_introduced :: is_defined_var;
var bool: X_INTRODUCED_41_ ::var_is_introduced :: is_defined_var;
var bool: X_INTRODUCED_42_ ::var_is_introduced :: is_defined_var;
var bool: X_INTRODUCED_44_ ::var_is_introduced :: is_defined_var;
var bool: X_INTRODUCED_47_ ::var_is_introduced :: is_defined_var;
var bool: X_INTRODUCED_48_ ::var_is_introduced :: is_defined_var;
var bool: X_INTRODUCED_49_ ::var_is_introduced :: is_defined_var;
var bool: X_INTRODUCED_50_ ::var_is_introduced :: is_defined_var;
var bool: X_INTRODUCED_51_ ::var_is_introduced :: is_defined_var;
var bool: X_INTRODUCED_52_ ::var_is_introduced :: is_defined_var;
var bool: X_INTRODUCED_53_ ::var_is_introduced :: is_defined_var;
var bool: X_INTRODUCED_54_ ::var_is_introduced :: is_defined_var;
var bool: X_INTRODUCED_55_ ::var_is_introduced :: is_defined_var;
var bool: X_INTRODUCED_58_ ::var_is_introduced :: is_defined_var;
var bool: X_INTRODUCED_60_ ::var_is_introduced :: is_defined_var;
var bool: X_INTRODUCED_62_ ::var_is_introduced :: is_defined_var;
var 51..53: X_INTRODUCED_65_ ::var_is_introduced :: is_defined_var;
var 1..3: X_INTRODUCED_66_ ::var_is_introduced ;
var 51..53: X_INTRODUCED_67_ ::var_is_introduced :: is_defined_var;
var 1..3: X_INTRODUCED_68_ ::var_is_introduced ;
var bool: X_INTRODUCED_69_ ::var_is_introduced :: is_defined_var;
var 1..3: X_INTRODUCED_70_ ::var_is_introduced ;
var 1..2: X_INTRODUCED_71_ ::var_is_introduced ;
var bool: X_INTRODUCED_73_ ::var_is_introduced :: is_defined_var;
var 4..5: X_INTRODUCED_74_ ::var_is_introduced :: is_defined_var;
var bool: X_INTRODUCED_75_ ::var_is_introduced :: is_defined_var;
var {41,43,52}: X_INTRODUCED_76_ ::var_is_introduced :: is_defined_var;
var 1..3: X_INTRODUCED_77_ ::var_is_introduced ;
var bool: X_INTRODUCED_79_ ::var_is_introduced :: is_defined_var;
var 1..2: X_INTRODUCED_80_ ::var_is_introduced ;
var bool: X_INTRODUCED_81_ ::var_is_introduced :: is_defined_var;
var 4..5: X_INTRODUCED_82_ ::var_is_introduced :: is_defined_var;
var bool: X_INTRODUCED_83_ ::var_is_introduced :: is_defined_var;
var {41,43,52}: X_INTRODUCED_84_ ::var_is_introduced :: is_defined_var;
var 1..3: X_INTRODUCED_85_ ::var_is_introduced ;
var bool: X_INTRODUCED_86_ ::var_is_introduced :: is_defined_var;
var 1..3: X_INTRODUCED_87_ ::var_is_introduced ;
var bool: X_INTRODUCED_88_ ::var_is_introduced :: is_defined_var;
var bool: X_INTRODUCED_91_ ::var_is_introduced :: is_defined_var;
var bool: X_INTRODUCED_92_ ::var_is_introduced :: is_defined_var;
var bool: X_INTRODUCED_93_ ::var_is_introduced :: is_defined_var;
var bool: X_INTRODUCED_94_ ::var_is_introduced :: is_defined_var;
var bool: X_INTRODUCED_95_ ::var_is_introduced :: is_defined_var;
var bool: X_INTRODUCED_96_ ::var_is_introduced :: is_defined_var;
var bool: X_INTRODUCED_98_ ::var_is_introduced :: is_defined_var;
var bool: X_INTRODUCED_99_ ::var_is_introduced :: is_defined_var;
var bool: X_INTRODUCED_100_ ::var_is_introduced :: is_defined_var;
var bool: X_INTRODUCED_101_ ::var_is_introduced :: is_defined_var;
var bool: X_INTRODUCED_103_ ::var_is_introduced :: is_defined_var;
var bool: X_INTRODUCED_104_ ::var_is_introduced :: is_defined_var;
var bool: X_INTRODUCED_105_ ::var_is_introduced :: is_defined_var;
var bool: X_INTRODUCED_107_ ::var_is_introduced :: is_defined_var;
var bool: X_INTRODUCED_108_ ::var_is_introduced :: is_defined_var;
var bool: X_INTRODUCED_109_ ::var_is_introduced :: is_defined_var;
var bool: X_INTRODUCED_110_ ::var_is_introduced :: is_defined_var;
var bool: X_INTRODUCED_111_ ::var_is_introduced :: is_defined_var;
constraint int_lin_ne(X_INTRODUCED_1_,[Vr21,Vr22],0);
constraint int_lin_ne(X_INTRODUCED_1_,[Vr21,Vr23],0);
constraint int_lin_ne(X_INTRODUCED_1_,[Vr21,Vp1],0);
constraint int_lin_ne(X_INTRODUCED_1_,[Vr21,Vp2],0);
constraint int_lin_ne(X_INTRODUCED_1_,[Vr21,Vp3],0);
constraint int_lin_ne(X_INTRODUCED_1_,[Vr21,Vp4],0);
constraint int_lin_ne(X_INTRODUCED_1_,[Vr22,Vr23],0);
constraint int_lin_ne(X_INTRODUCED_1_,[Vr22,Vp1],0);
constraint int_lin_ne(X_INTRODUCED_1_,[Vr22,Vp2],0);
constraint int_lin_ne(X_INTRODUCED_1_,[Vr22,Vp3],0);
constraint int_lin_ne(X_INTRODUCED_1_,[Vr22,Vp4],0);
constraint int_lin_ne(X_INTRODUCED_1_,[Vr23,Vp1],0);
constraint int_lin_ne(X_INTRODUCED_1_,[Vr23,Vp2],0);
constraint int_lin_ne(X_INTRODUCED_1_,[Vr23,Vp3],0);
constraint int_lin_ne(X_INTRODUCED_1_,[Vr23,Vp4],0);
constraint int_lin_ne(X_INTRODUCED_1_,[Vp1,Vp2],0);
constraint int_lin_ne(X_INTRODUCED_1_,[Vp1,Vp3],0);
constraint int_lin_ne(X_INTRODUCED_1_,[Vp1,Vp4],0);
constraint int_lin_ne(X_INTRODUCED_1_,[Vp2,Vp3],0);
constraint int_lin_ne(X_INTRODUCED_1_,[Vp2,Vp4],0);
constraint int_lin_ne(X_INTRODUCED_1_,[Vp3,Vp4],0);
constraint int_div(Vr22,100,X_INTRODUCED_3_):: defines_var(X_INTRODUCED_3_);
constraint int_div(Vr21,100,X_INTRODUCED_4_):: defines_var(X_INTRODUCED_4_);
constraint int_div(Vr22,10,X_INTRODUCED_6_):: defines_var(X_INTRODUCED_6_);
constraint int_mod(X_INTRODUCED_6_,10,X_INTRODUCED_7_);
constraint int_div(Vr21,10,X_INTRODUCED_8_):: defines_var(X_INTRODUCED_8_);
constraint int_mod(X_INTRODUCED_8_,10,X_INTRODUCED_9_);
constraint int_mod(Vr22,10,X_INTRODUCED_11_);
constraint int_mod(Vr21,10,X_INTRODUCED_12_);
constraint int_div(Vr23,100,X_INTRODUCED_15_):: defines_var(X_INTRODUCED_15_);
constraint int_div(Vr23,10,X_INTRODUCED_18_):: defines_var(X_INTRODUCED_18_);
constraint int_mod(X_INTRODUCED_18_,10,X_INTRODUCED_19_);
constraint int_mod(Vr23,10,X_INTRODUCED_21_);
constraint array_bool_and([X_INTRODUCED_5_,X_INTRODUCED_22_,X_INTRODUCED_20_,X_INTRODUCED_17_,X_INTRODUCED_14_,X_INTRODUCED_10_],false);
constraint array_bool_and([X_INTRODUCED_5_,X_INTRODUCED_33_,X_INTRODUCED_26_,X_INTRODUCED_22_,X_INTRODUCED_20_,X_INTRODUCED_17_],false);
constraint array_bool_and([X_INTRODUCED_44_,X_INTRODUCED_37_,X_INTRODUCED_27_,X_INTRODUCED_26_,X_INTRODUCED_20_,X_INTRODUCED_10_],false);
constraint array_bool_and([X_INTRODUCED_5_,X_INTRODUCED_40_,X_INTRODUCED_26_,X_INTRODUCED_22_,X_INTRODUCED_20_,X_INTRODUCED_17_],false);
constraint array_bool_and([X_INTRODUCED_48_,X_INTRODUCED_44_,X_INTRODUCED_27_,X_INTRODUCED_26_,X_INTRODUCED_22_,X_INTRODUCED_10_],false);
constraint array_bool_and([X_INTRODUCED_44_,X_INTRODUCED_29_,X_INTRODUCED_27_,X_INTRODUCED_26_,X_INTRODUCED_22_,X_INTRODUCED_10_],false);
constraint array_bool_and([X_INTRODUCED_44_,X_INTRODUCED_31_,X_INTRODUCED_27_,X_INTRODUCED_26_,X_INTRODUCED_20_,X_INTRODUCED_10_],false);
constraint array_bool_and([X_INTRODUCED_5_,X_INTRODUCED_47_,X_INTRODUCED_22_,X_INTRODUCED_20_,X_INTRODUCED_17_,X_INTRODUCED_10_],false);
constraint array_bool_or([X_INTRODUCED_62_,X_INTRODUCED_60_,X_INTRODUCED_58_,X_INTRODUCED_55_,X_INTRODUCED_54_,X_INTRODUCED_53_,X_INTRODUCED_52_,X_INTRODUCED_51_,X_INTRODUCED_50_,X_INTRODUCED_49_,X_INTRODUCED_42_,X_INTRODUCED_41_,X_INTRODUCED_38_,X_INTRODUCED_35_,X_INTRODUCED_32_,X_INTRODUCED_30_],true);
constraint int_div(Vp2,100,5);
constraint int_div(Vp1,100,5);
constraint int_div(Vp2,10,X_INTRODUCED_65_):: defines_var(X_INTRODUCED_65_);
constraint int_mod(X_INTRODUCED_65_,10,X_INTRODUCED_66_);
constraint int_div(Vp1,10,X_INTRODUCED_67_):: defines_var(X_INTRODUCED_67_);
constraint int_mod(X_INTRODUCED_67_,10,X_INTRODUCED_68_);
constraint int_mod(Vp2,10,X_INTRODUCED_70_);
constraint int_mod(Vp1,10,X_INTRODUCED_71_);
constraint int_div(Vp3,100,X_INTRODUCED_74_):: defines_var(X_INTRODUCED_74_);
constraint int_div(Vp3,10,X_INTRODUCED_76_):: defines_var(X_INTRODUCED_76_);
constraint int_mod(X_INTRODUCED_76_,10,X_INTRODUCED_77_);
constraint int_mod(Vp3,10,X_INTRODUCED_80_);
constraint int_div(Vp4,100,X_INTRODUCED_82_):: defines_var(X_INTRODUCED_82_);
constraint int_div(Vp4,10,X_INTRODUCED_84_):: defines_var(X_INTRODUCED_84_);
constraint int_mod(X_INTRODUCED_84_,10,X_INTRODUCED_85_);
constraint int_mod(Vp4,10,X_INTRODUCED_87_);
constraint array_bool_and([X_INTRODUCED_88_,X_INTRODUCED_86_,X_INTRODUCED_83_,X_INTRODUCED_81_,X_INTRODUCED_79_,X_INTRODUCED_75_,X_INTRODUCED_73_,X_INTRODUCED_69_],false);
constraint array_bool_and([X_INTRODUCED_101_,X_INTRODUCED_100_,X_INTRODUCED_94_,X_INTRODUCED_88_,X_INTRODUCED_86_,X_INTRODUCED_83_,X_INTRODUCED_75_,X_INTRODUCED_69_],false);
constraint array_bool_and([X_INTRODUCED_105_,X_INTRODUCED_104_,X_INTRODUCED_101_,X_INTRODUCED_100_,X_INTRODUCED_96_,X_INTRODUCED_93_,X_INTRODUCED_88_,X_INTRODUCED_69_],false);
constraint array_bool_and([X_INTRODUCED_111_,X_INTRODUCED_104_,X_INTRODUCED_96_,X_INTRODUCED_93_,X_INTRODUCED_88_,X_INTRODUCED_81_,X_INTRODUCED_73_,X_INTRODUCED_69_],false);
constraint array_bool_or([X_INTRODUCED_110_,X_INTRODUCED_109_,X_INTRODUCED_103_,X_INTRODUCED_99_],true);
constraint int_eq_reif(X_INTRODUCED_3_,X_INTRODUCED_4_,X_INTRODUCED_5_):: defines_var(X_INTRODUCED_5_);
constraint int_eq_reif(X_INTRODUCED_7_,X_INTRODUCED_9_,X_INTRODUCED_10_):: defines_var(X_INTRODUCED_10_);
constraint int_lin_eq_reif(X_INTRODUCED_1_,[X_INTRODUCED_11_,X_INTRODUCED_12_],-1,X_INTRODUCED_14_):: defines_var(X_INTRODUCED_14_);
constraint int_lin_eq_reif(X_INTRODUCED_1_,[X_INTRODUCED_15_,X_INTRODUCED_4_],1,X_INTRODUCED_17_):: defines_var(X_INTRODUCED_17_);
constraint int_eq_reif(X_INTRODUCED_19_,X_INTRODUCED_9_,X_INTRODUCED_20_):: defines_var(X_INTRODUCED_20_);
constraint int_eq_reif(X_INTRODUCED_21_,X_INTRODUCED_12_,X_INTRODUCED_22_):: defines_var(X_INTRODUCED_22_);
constraint int_lin_eq_reif(X_INTRODUCED_1_,[X_INTRODUCED_3_,X_INTRODUCED_4_],-1,X_INTRODUCED_25_):: defines_var(X_INTRODUCED_25_);
constraint int_eq_reif(X_INTRODUCED_11_,X_INTRODUCED_12_,X_INTRODUCED_26_):: defines_var(X_INTRODUCED_26_);
constraint int_eq_reif(X_INTRODUCED_15_,X_INTRODUCED_4_,X_INTRODUCED_27_):: defines_var(X_INTRODUCED_27_);
constraint int_lin_eq_reif(X_INTRODUCED_1_,[X_INTRODUCED_19_,X_INTRODUCED_9_],1,X_INTRODUCED_29_):: defines_var(X_INTRODUCED_29_);
constraint array_bool_and([X_INTRODUCED_29_,X_INTRODUCED_27_,X_INTRODUCED_26_,X_INTRODUCED_25_,X_INTRODUCED_22_,X_INTRODUCED_10_],X_INTRODUCED_30_):: defines_var(X_INTRODUCED_30_);
constraint int_lin_eq_reif(X_INTRODUCED_1_,[X_INTRODUCED_21_,X_INTRODUCED_12_],-1,X_INTRODUCED_31_):: defines_var(X_INTRODUCED_31_);
constraint array_bool_and([X_INTRODUCED_31_,X_INTRODUCED_27_,X_INTRODUCED_26_,X_INTRODUCED_25_,X_INTRODUCED_20_,X_INTRODUCED_10_],X_INTRODUCED_32_):: defines_var(X_INTRODUCED_32_);
constraint int_lin_eq_reif(X_INTRODUCED_1_,[X_INTRODUCED_7_,X_INTRODUCED_9_],1,X_INTRODUCED_33_):: defines_var(X_INTRODUCED_33_);
constraint int_lin_eq_reif(X_INTRODUCED_1_,[X_INTRODUCED_15_,X_INTRODUCED_4_],-1,X_INTRODUCED_34_):: defines_var(X_INTRODUCED_34_);
constraint array_bool_and([X_INTRODUCED_5_,X_INTRODUCED_34_,X_INTRODUCED_33_,X_INTRODUCED_26_,X_INTRODUCED_22_,X_INTRODUCED_20_],X_INTRODUCED_35_):: defines_var(X_INTRODUCED_35_);
constraint int_lin_eq_reif(X_INTRODUCED_1_,[X_INTRODUCED_21_,X_INTRODUCED_12_],1,X_INTRODUCED_37_):: defines_var(X_INTRODUCED_37_);
constraint array_bool_and([X_INTRODUCED_5_,X_INTRODUCED_37_,X_INTRODUCED_33_,X_INTRODUCED_27_,X_INTRODUCED_26_,X_INTRODUCED_20_],X_INTRODUCED_38_):: defines_var(X_INTRODUCED_38_);
constraint int_lin_eq_reif(X_INTRODUCED_1_,[X_INTRODUCED_7_,X_INTRODUCED_9_],-1,X_INTRODUCED_40_):: defines_var(X_INTRODUCED_40_);
constraint array_bool_and([X_INTRODUCED_5_,X_INTRODUCED_40_,X_INTRODUCED_34_,X_INTRODUCED_26_,X_INTRODUCED_22_,X_INTRODUCED_20_],X_INTRODUCED_41_):: defines_var(X_INTRODUCED_41_);
constraint array_bool_and([X_INTRODUCED_5_,X_INTRODUCED_40_,X_INTRODUCED_37_,X_INTRODUCED_27_,X_INTRODUCED_26_,X_INTRODUCED_20_],X_INTRODUCED_42_):: defines_var(X_INTRODUCED_42_);
constraint int_lin_eq_reif(X_INTRODUCED_1_,[X_INTRODUCED_3_,X_INTRODUCED_4_],1,X_INTRODUCED_44_):: defines_var(X_INTRODUCED_44_);
constraint int_lin_eq_reif(X_INTRODUCED_1_,[X_INTRODUCED_11_,X_INTRODUCED_12_],1,X_INTRODUCED_47_):: defines_var(X_INTRODUCED_47_);
constraint int_lin_eq_reif(X_INTRODUCED_1_,[X_INTRODUCED_19_,X_INTRODUCED_9_],-1,X_INTRODUCED_48_):: defines_var(X_INTRODUCED_48_);
constraint array_bool_and([X_INTRODUCED_5_,X_INTRODUCED_48_,X_INTRODUCED_47_,X_INTRODUCED_27_,X_INTRODUCED_22_,X_INTRODUCED_10_],X_INTRODUCED_49_):: defines_var(X_INTRODUCED_49_);
constraint array_bool_and([X_INTRODUCED_5_,X_INTRODUCED_47_,X_INTRODUCED_29_,X_INTRODUCED_27_,X_INTRODUCED_22_,X_INTRODUCED_10_],X_INTRODUCED_50_):: defines_var(X_INTRODUCED_50_);
constraint array_bool_and([X_INTRODUCED_37_,X_INTRODUCED_27_,X_INTRODUCED_26_,X_INTRODUCED_25_,X_INTRODUCED_20_,X_INTRODUCED_10_],X_INTRODUCED_51_):: defines_var(X_INTRODUCED_51_);
constraint array_bool_and([X_INTRODUCED_5_,X_INTRODUCED_48_,X_INTRODUCED_27_,X_INTRODUCED_22_,X_INTRODUCED_14_,X_INTRODUCED_10_],X_INTRODUCED_52_):: defines_var(X_INTRODUCED_52_);
constraint array_bool_and([X_INTRODUCED_5_,X_INTRODUCED_29_,X_INTRODUCED_27_,X_INTRODUCED_22_,X_INTRODUCED_14_,X_INTRODUCED_10_],X_INTRODUCED_53_):: defines_var(X_INTRODUCED_53_);
constraint array_bool_and([X_INTRODUCED_5_,X_INTRODUCED_47_,X_INTRODUCED_34_,X_INTRODUCED_22_,X_INTRODUCED_20_,X_INTRODUCED_10_],X_INTRODUCED_54_):: defines_var(X_INTRODUCED_54_);
constraint array_bool_and([X_INTRODUCED_5_,X_INTRODUCED_33_,X_INTRODUCED_31_,X_INTRODUCED_27_,X_INTRODUCED_26_,X_INTRODUCED_20_],X_INTRODUCED_55_):: defines_var(X_INTRODUCED_55_);
constraint array_bool_and([X_INTRODUCED_5_,X_INTRODUCED_40_,X_INTRODUCED_31_,X_INTRODUCED_27_,X_INTRODUCED_26_,X_INTRODUCED_20_],X_INTRODUCED_58_):: defines_var(X_INTRODUCED_58_);
constraint array_bool_and([X_INTRODUCED_5_,X_INTRODUCED_34_,X_INTRODUCED_22_,X_INTRODUCED_20_,X_INTRODUCED_14_,X_INTRODUCED_10_],X_INTRODUCED_60_):: defines_var(X_INTRODUCED_60_);
constraint array_bool_and([X_INTRODUCED_48_,X_INTRODUCED_27_,X_INTRODUCED_26_,X_INTRODUCED_25_,X_INTRODUCED_22_,X_INTRODUCED_10_],X_INTRODUCED_62_):: defines_var(X_INTRODUCED_62_);
constraint int_eq_reif(X_INTRODUCED_66_,X_INTRODUCED_68_,X_INTRODUCED_69_):: defines_var(X_INTRODUCED_69_);
constraint int_lin_eq_reif(X_INTRODUCED_1_,[X_INTRODUCED_70_,X_INTRODUCED_71_],-1,X_INTRODUCED_73_):: defines_var(X_INTRODUCED_73_);
constraint int_eq_reif(X_INTRODUCED_74_,5,X_INTRODUCED_75_):: defines_var(X_INTRODUCED_75_);
constraint int_lin_eq_reif(X_INTRODUCED_1_,[X_INTRODUCED_77_,X_INTRODUCED_68_],1,X_INTRODUCED_79_):: defines_var(X_INTRODUCED_79_);
constraint int_lin_eq_reif(X_INTRODUCED_1_,[X_INTRODUCED_80_,X_INTRODUCED_71_],-1,X_INTRODUCED_81_):: defines_var(X_INTRODUCED_81_);
constraint int_eq_reif(X_INTRODUCED_82_,4,X_INTRODUCED_83_):: defines_var(X_INTRODUCED_83_);
constraint int_eq_reif(X_INTRODUCED_85_,X_INTRODUCED_68_,X_INTRODUCED_86_):: defines_var(X_INTRODUCED_86_);
constraint int_eq_reif(X_INTRODUCED_87_,X_INTRODUCED_71_,X_INTRODUCED_88_):: defines_var(X_INTRODUCED_88_);
constraint int_lin_eq_reif(X_INTRODUCED_1_,[X_INTRODUCED_66_,X_INTRODUCED_68_],-1,X_INTRODUCED_91_):: defines_var(X_INTRODUCED_91_);
constraint int_eq_reif(X_INTRODUCED_70_,X_INTRODUCED_71_,X_INTRODUCED_92_):: defines_var(X_INTRODUCED_92_);
constraint int_eq_reif(X_INTRODUCED_74_,4,X_INTRODUCED_93_):: defines_var(X_INTRODUCED_93_);
constraint int_lin_eq_reif(X_INTRODUCED_1_,[X_INTRODUCED_77_,X_INTRODUCED_68_],-1,X_INTRODUCED_94_):: defines_var(X_INTRODUCED_94_);
constraint int_eq_reif(X_INTRODUCED_80_,X_INTRODUCED_71_,X_INTRODUCED_95_):: defines_var(X_INTRODUCED_95_);
constraint int_eq_reif(X_INTRODUCED_82_,5,X_INTRODUCED_96_):: defines_var(X_INTRODUCED_96_);
constraint int_lin_eq_reif(X_INTRODUCED_1_,[X_INTRODUCED_87_,X_INTRODUCED_71_],1,X_INTRODUCED_98_):: defines_var(X_INTRODUCED_98_);
constraint array_bool_and([X_INTRODUCED_98_,X_INTRODUCED_96_,X_INTRODUCED_95_,X_INTRODUCED_94_,X_INTRODUCED_93_,X_INTRODUCED_92_,X_INTRODUCED_91_,X_INTRODUCED_86_],X_INTRODUCED_99_):: defines_var(X_INTRODUCED_99_);
constraint int_lin_eq_reif(X_INTRODUCED_1_,[X_INTRODUCED_70_,X_INTRODUCED_71_],1,X_INTRODUCED_100_):: defines_var(X_INTRODUCED_100_);
constraint int_lin_eq_reif(X_INTRODUCED_1_,[X_INTRODUCED_80_,X_INTRODUCED_71_],1,X_INTRODUCED_101_):: defines_var(X_INTRODUCED_101_);
constraint array_bool_and([X_INTRODUCED_94_,X_INTRODUCED_92_,X_INTRODUCED_91_,X_INTRODUCED_88_,X_INTRODUCED_86_,X_INTRODUCED_83_,X_INTRODUCED_81_,X_INTRODUCED_75_],X_INTRODUCED_103_):: defines_var(X_INTRODUCED_103_);
constraint int_eq_reif(X_INTRODUCED_77_,X_INTRODUCED_68_,X_INTRODUCED_104_):: defines_var(X_INTRODUCED_104_);
constraint int_lin_eq_reif(X_INTRODUCED_1_,[X_INTRODUCED_85_,X_INTRODUCED_68_],1,X_INTRODUCED_105_):: defines_var(X_INTRODUCED_105_);
constraint int_lin_eq_reif(X_INTRODUCED_1_,[X_INTRODUCED_66_,X_INTRODUCED_68_],1,X_INTRODUCED_107_):: defines_var(X_INTRODUCED_107_);
constraint int_lin_eq_reif(X_INTRODUCED_1_,[X_INTRODUCED_87_,X_INTRODUCED_71_],-1,X_INTRODUCED_108_):: defines_var(X_INTRODUCED_108_);
constraint array_bool_and([X_INTRODUCED_108_,X_INTRODUCED_107_,X_INTRODUCED_96_,X_INTRODUCED_95_,X_INTRODUCED_93_,X_INTRODUCED_92_,X_INTRODUCED_86_,X_INTRODUCED_79_],X_INTRODUCED_109_):: defines_var(X_INTRODUCED_109_);
constraint array_bool_and([X_INTRODUCED_107_,X_INTRODUCED_101_,X_INTRODUCED_92_,X_INTRODUCED_88_,X_INTRODUCED_86_,X_INTRODUCED_83_,X_INTRODUCED_79_,X_INTRODUCED_75_],X_INTRODUCED_110_):: defines_var(X_INTRODUCED_110_);
constraint int_lin_eq_reif(X_INTRODUCED_1_,[X_INTRODUCED_85_,X_INTRODUCED_68_],-1,X_INTRODUCED_111_):: defines_var(X_INTRODUCED_111_);
solve  satisfy;
